language ESSENCE' 1.0
letting lastdx=101
letting cage be [
[9,4,6,0,0, 0,0, 0,0, 0,0],
[20,16,1,16,2,0,0, 0,0, 0,0],
[29,15,12,15,11,14,11,13,11,0,0],
[2,14,16,0,0, 0,0, 0,0, 0,0],
[4,8,16,0,0, 0,0, 0,0, 0,0],
[12,10,1,0,0, 0,0, 0,0, 0,0],
[10,3,11,0,0, 0,0, 0,0, 0,0],
[22,5,10,5,9,0,0, 0,0, 0,0],
[2,4,5,0,0, 0,0, 0,0, 0,0],
[9,3,1,0,0, 0,0, 0,0, 0,0],
[23,6,13,6,14,5,14,0,0, 0,0],
[5,8,5,0,0, 0,0, 0,0, 0,0],
[15,12,2,12,1,0,0, 0,0, 0,0],
[23,12,5,12,4,12,3,0,0, 0,0],
[52,3,15,3,14,3,13,3,12,4,12],
[9,10,2,9,2,0,0, 0,0, 0,0],
[20,11,14,11,13,12,13,0,0, 0,0],
[37,12,14,12,15,12,16,11,16,0,0],
[9,9,5,0,0, 0,0, 0,0, 0,0],
[1,7,5,0,0, 0,0, 0,0, 0,0],
[32,15,13,16,13,16,14,0,0, 0,0],
[23,11,9,12,9,0,0, 0,0, 0,0],
[2,10,9,0,0, 0,0, 0,0, 0,0],
[27,15,6,16,6,16,7,16,8,16,9],
[20,11,1,11,2,0,0, 0,0, 0,0],
[30,7,3,6,3,6,2,5,2,0,0],
[8,2,5,0,0, 0,0, 0,0, 0,0],
[37,2,7,2,8,3,8,0,0, 0,0],
[27,7,2,8,2,8,3,0,0, 0,0],
[9,15,10,0,0, 0,0, 0,0, 0,0],
[25,12,8,13,8,0,0, 0,0, 0,0],
[36,14,8,14,7,15,7,0,0, 0,0],
[8,4,3,0,0, 0,0, 0,0, 0,0],
[9,16,16,0,0, 0,0, 0,0, 0,0],
[35,4,14,4,13,4,15,0,0, 0,0],
[6,6,8,0,0, 0,0, 0,0, 0,0],
[4,13,6,0,0, 0,0, 0,0, 0,0],
[39,16,12,16,11,16,10,0,0, 0,0],
[7,12,11,0,0, 0,0, 0,0, 0,0],
[5,7,13,0,0, 0,0, 0,0, 0,0],
[13,6,6,0,0, 0,0, 0,0, 0,0],
[49,10,4,9,4,8,4,7,4,6,4],
[7,9,13,0,0, 0,0, 0,0, 0,0],
[5,9,9,0,0, 0,0, 0,0, 0,0],
[4,9,10,0,0, 0,0, 0,0, 0,0],
[8,10,6,0,0, 0,0, 0,0, 0,0],
[19,13,15,13,16,0,0, 0,0, 0,0],
[30,11,10,11,11,11,12,0,0, 0,0],
[42,3,6,2,6,1,6,1,7,1,8],
[46,10,3,9,3,11,3,11,4,0,0],
[27,14,14,14,13,13,13,13,14,0,0],
[27,1,12,2,12,2,13,1,13,0,0],
[24,2,9,1,9,0,0, 0,0, 0,0],
[6,15,3,14,3,14,4,0,0, 0,0],
[15,5,8,4,8,0,0, 0,0, 0,0],
[1,15,8,0,0, 0,0, 0,0, 0,0],
[1,11,6,0,0, 0,0, 0,0, 0,0],
[12,5,6,0,0, 0,0, 0,0, 0,0],
[15,8,6,0,0, 0,0, 0,0, 0,0],
[46,14,5,14,6,13,5,13,4,0,0],
[35,8,12,8,11,9,11,10,11,10,10],
[22,7,12,6,12,0,0, 0,0, 0,0],
[9,8,1,9,1,0,0, 0,0, 0,0],
[47,15,14,15,15,14,15,15,16,16,15],
[31,11,15,10,15,10,16,9,16,0,0],
[29,11,5,10,5,0,0, 0,0, 0,0],
[12,4,4,3,4,3,5,0,0, 0,0],
[21,13,3,13,2,0,0, 0,0, 0,0],
[11,6,1,7,1,0,0, 0,0, 0,0],
[11,5,3,0,0, 0,0, 0,0, 0,0],
[50,6,16,7,16,7,15,7,14,0,0],
[25,2,4,2,3,2,2,0,0, 0,0],
[33,3,7,4,7,5,7,6,7,0,0],
[14,8,14,8,13,0,0, 0,0, 0,0],
[10,13,1,0,0, 0,0, 0,0, 0,0],
[38,6,10,6,9,7,9,7,8,8,8],
[8,15,2,0,0, 0,0, 0,0, 0,0],
[17,1,1,2,1,0,0, 0,0, 0,0],
[32,1,2,1,3,1,4,1,5,0,0],
[14,1,10,1,11,0,0, 0,0, 0,0],
[21,1,14,2,14,2,15,0,0, 0,0],
[15,1,15,1,16,0,0, 0,0, 0,0],
[25,2,10,2,11,3,10,0,0, 0,0],
[13,2,16,0,0, 0,0, 0,0, 0,0],
[59,3,2,3,3,4,2,4,1,5,1],
[3,3,9,0,0, 0,0, 0,0, 0,0],
[6,3,16,0,0, 0,0, 0,0, 0,0],
[22,4,9,4,10,0,0, 0,0, 0,0],
[34,4,16,5,16,5,15,6,15,0,0],
[24,5,4,5,5,6,5,0,0, 0,0],
[43,6,11,7,11,7,10,8,10,8,9],
[34,7,6,7,7,8,7,0,0, 0,0],
[20,8,15,9,15,0,0, 0,0, 0,0],
[11,9,6,0,0, 0,0, 0,0, 0,0],
[3,9,7,0,0, 0,0, 0,0, 0,0],
[23,9,8,10,8,11,8,0,0, 0,0],
[34,10,7,11,7,12,7,12,6,13,7],
[12,12,10,0,0, 0,0, 0,0, 0,0],
[13,12,12,0,0, 0,0, 0,0, 0,0],
[45,13,9,14,9,15,9,14,10,13,10],
[13,13,12,14,12,0,0, 0,0, 0,0],
[25,14,1,14,2,15,1,0,0, 0,0]
]
